Results/Experiment 1 Results/New Benchmark/RES_40/output_p1_0.25_p2_0.00_n_40_14.txt
solutions: 0 nodes: 0  modelTime: 107  solveTime: 9  totalTime: 118  modelSize: 7857  readTime: 2 matchingSize: 0
